17	4	3
20	19	23	23	8	48	5	
0	0	0	0	0	5	3	9	3	4	9	3	2	3	4
9	3	7	0	10	4	9	7	1	3	8	3	5	10	11
5	0	2	10	6	7	9	4	3	2	7	3	7	13	17
9	7	5	7	0	2	7	8	8	3	5	3	6	9	16
10	4	6	10	8	4	5	3	4	6	2	1	15
200	8	4	7	8	6	1	4	4	4	8	3	8	12	17
25	9	7	1	3	3	7	6	10	7	9	1	17
250	3	0	2	4	7	4	7	1	6	9	1	14
150	4	0	3	8	7	7	6	5	4	8	1	17
75	0	7	4	0	9	7	2	1	1	7	2	14	17
225	4	0	4	8	2	7	8	6	1	1	1	17
250	2	0	5	2	4	3	7	9	2	4	1	17
4	6	0	5	3	7	9	7	4	9	2	2	16	17
2	4	10	9	5	2	6	9	7	10	2	1	17
4	0	0	4	7	4	8	9	6	8	10	1	17
10	3	6	4	0	3	10	6	10	5	6	1	17
0	0	0	0	0	10	8	9	6	7	10	0
